(set-info :source  loris-7.ddns.comp.nus.edu.sg/~project/hip/) 
;Variables declarations
(declare-fun l_2898 () Int)
(declare-fun aux_2887 () Int)
(declare-fun nmin1_2899 () Int)
(declare-fun nmin1_2826 () Int)
(declare-fun flted_79_2825 () Int)
(declare-fun n () Int)
(declare-fun nmin () Int)
(declare-fun flted_26_2685 () Int)
(declare-fun nmin1_2688 () Int)
(declare-fun n_2693 () Int)
(declare-fun nmin_2694 () Int)
(declare-fun flted_26_2684 () Int)
(declare-fun nmin2_2690 () Int)
(declare-fun n_2732 () Int)
(declare-fun nmin_2733 () Int)
(declare-fun n_2705 () Int)
(declare-fun nmin_2706 () Int)
(declare-fun n_2806 () Int)
(declare-fun nmin_2807 () Int)
(declare-fun nmin_2776 () Int)
(declare-fun nmin_2745 () Int)
(declare-fun n_2744 () Int)
(declare-fun n_2775 () Int)
(declare-fun r_2900 () Int)
(declare-fun n_2787 () Int)
(declare-fun nmin_2788 () Int)
(declare-fun r_2689 () Int)
;Relations declarations
;Axioms assertions
;Antecedent
(assert (= l_2898 aux_2887))
(assert (or (and (and (<= 1 nmin1_2826) (<= nmin1_2826 flted_79_2825)) (> aux_2887 0)) (or (and (and (< aux_2887 1) (= flted_79_2825 0)) (= nmin1_2826 0)) (and (and (<= 1 nmin1_2826) (< nmin1_2826 flted_79_2825)) (> aux_2887 0)))))
(assert (= nmin1_2899 nmin1_2826))
(assert (<= nmin_2807 n_2806))
(assert (<= 0 nmin_2807))
(assert (or (= nmin1_2826 nmin_2807) (= nmin1_2826 (+ 1 nmin_2807))))
(assert (= flted_79_2825 (+ 1 n_2806)))
(assert (<= nmin_2706 n_2705))
(assert (<= 0 nmin_2706))
(assert (<= nmin_2733 n_2732))
(assert (<= 0 nmin_2733))
(assert (<= nmin2_2690 flted_26_2684))
(assert (<= 0 nmin2_2690))
(assert (<= nmin_2694 n_2693))
(assert (<= 0 nmin_2694))
(assert (<= nmin1_2688 flted_26_2685))
(assert (<= 0 nmin1_2688))
(assert (= nmin n))
(assert (<= n_2744 nmin_2733))
(assert (<= n_2705 nmin_2694))
(assert (= (+ flted_26_2685 1) n))
(assert (= (+ flted_26_2684 1) n))
(assert (exists ((min_2921 Int)) (and (= nmin (+ 1 min_2921)) (or (and (= min_2921 nmin1_2688) (< nmin1_2688 nmin2_2690)) (and (= min_2921 nmin2_2690) (>= nmin1_2688 nmin2_2690))))))
(assert (= n_2693 flted_26_2685))
(assert (= nmin_2694 nmin1_2688))
(assert (= n_2705 n_2693))
(assert (= nmin_2706 nmin_2694))
(assert (= n_2732 flted_26_2684))
(assert (= nmin_2733 nmin2_2690))
(assert (= n_2744 n_2732))
(assert (= nmin_2745 nmin_2733))
(assert (= n_2775 n_2705))
(assert (= nmin_2776 nmin_2706))
(assert (<= 0 nmin_2745))
(assert (<= nmin_2745 n_2744))
(assert (= n_2806 n_2775))
(assert (= nmin_2807 nmin_2776))
(assert (<= 0 nmin_2776))
(assert (<= nmin_2776 n_2775))
(assert (<= nmin_2788 n_2787))
(assert (<= 0 nmin_2788))
(assert (= nmin_2788 nmin_2745))
(assert (= n_2787 n_2744))
(assert (= n_2787 n_2775))
(assert (= r_2900 r_2689))
(assert (or (and (and (<= 1 nmin_2788) (<= nmin_2788 n_2787)) (> r_2689 0)) (or (and (and (< r_2689 1) (= n_2787 0)) (= nmin_2788 0)) (and (and (<= 1 nmin_2788) (< nmin_2788 n_2787)) (> r_2689 0)))))
;Negation of Consequence
(assert (not (or (= n_2787 0) (or (= nmin_2788 0) (< r_2689 1)))))
(check-sat)